3172.02 0
0 136 129 131 126 128 116 121 118 134 0
0 18 21 22 35 19 33 0
0 112 105 103 99 108 101 15 8 11 12 150 13 14 1 6 110 100 106 0
0 107 102 146 143 2 16 5 17 9 3 10 4 7 104 98 109 0
0 111 97 0
0 94 96 95 93 75 88 90 85 0
0 135 125 120 119 124 113 114 117 122 72 67 73 130 0
0 52 59 58 46 41 57 0
0 56 54 62 60 55 61 0
0 137 80 92 89 79 83 78 82 81 91 86 87 77 76 0
0 25 34 24 23 30 32 31 26 28 20 0
0 64 133 69 71 70 68 65 74 66 63 0
0 45 42 48 50 49 47 40 38 43 44 39 51 53 0
0 84 142 147 140 141 148 138 139 144 149 145 0
0 132 115 127 123 29 37 36 27 0
